(set-logic QF_S)
(set-option :strings-exp true)
(set-option :produce-models true)
(declare-fun sigmaStar_0 () String)
(declare-fun literal_7 () String)
(assert (= literal_7 "\x3c\x69\x6e\x70\x75\x74\x20\x74\x79\x70\x65\x3d\x22\x62\x75\x74\x74\x6f\x6e\x22\x20\x76\x61\x6c\x75\x65\x3d\x22\x63\x61\x6e\x63\x65\x6c\x5c\x22\x20\x6f\x6e\x63\x6c\x69\x63\x6b\x3d\x5c\x22\x70\x61\x72\x65\x6e\x74\x2e\x6c\x6f\x63\x61\x74\x69\x6f\x6e\x3d\x27\x2e\x2e\x2f\x2e\x2e\x2f\x63\x6f\x75\x72\x73\x65\x2f\x76\x69\x65\x77\x2e\x70\x68\x70\x3f\x69\x64\x3d\x27\x3b\x5c\x22\x3e\x20\x20"))
(assert (str.in.re literal_7 (re.++ (re.* re.allchar) (re.++ (str.to.re "\x5c\x3c\x53\x43\x52\x49\x50\x54") (re.* re.allchar)))))
(check-sat)
(get-model)
